============================[ Problem Statistics ]=============================
|                                                                             |
|  Number of variables:          4640                                         |
|  Number of clauses:           13079                                         |
|  Parse time:                   0.00 s                                       |
|  Eliminated clauses:           0.14 Mb                                      |
|  Simplification time:          0.01 s                                       |
|                                                                             |
============================[ Search Statistics ]==============================
| Conflicts |          ORIGINAL         |          LEARNT          | Progress |
|           |    Vars  Clauses Literals |    Limit  Clauses Lit/Cl |          |
===============================================================================
|       100 |     852     4158    12987 |     1524      100     13 |  2.263 % |
|       250 |     852     4158    12987 |     1677      250     18 |  2.263 % |
|       475 |     852     4158    12987 |     1844      475     20 |  2.263 % |
|       812 |     852     4158    12987 |     2029      812     23 |  2.263 % |
|      1318 |     852     4158    12987 |     2232     1318     26 |  2.263 % |
|      2077 |     852     4158    12987 |     2455     2077     28 |  2.263 % |
|      3216 |     852     4158    12987 |     2700     1828     28 |  2.263 % |
|      4924 |     852     4158    12987 |     2971     2025     26 |  2.263 % |
|      7486 |     852     4158    12987 |     3268     2936     33 |  2.263 % |
|     11330 |     852     4158    12987 |     3594     3327     30 |  2.263 % |
|     17096 |     852     4158    12987 |     3954     3316     34 |  2.263 % |
|     25745 |     852     4158    12987 |     4349     3404     25 |  2.263 % |
|     38719 |     852     4158    12987 |     4784     4644     36 |  2.263 % |
|     58180 |     852     4158    12987 |     5263     3922     26 |  2.263 % |
|     87372 |     852     4158    12987 |     5789     4605     28 |  2.263 % |
|    131161 |     852     4158    12987 |     6368     5136     28 |  2.263 % |
|    196845 |     852     4158    12987 |     7005     3472     25 |  2.263 % |
|    295371 |     852     4158    12987 |     7706     5857     31 |  2.263 % |
|    443160 |     852     4158    12987 |     8476     4724     31 |  2.263 % |
|    664843 |     852     4158    12987 |     9324     4989     23 |  2.263 % |
|    997368 |     852     4158    12987 |    10256     7780     26 |  2.263 % |
|   1496156 |     852     4158    12987 |    11282     6691     27 |  2.263 % |
|   2244338 |     852     4158    12987 |    12410     7172     25 |  2.263 % |
|   3366612 |     852     4158    12987 |    13651    12595     30 |  2.263 % |
|   5050023 |     852     4158    12987 |    15016     7730     30 |  2.263 % |
|   7575139 |     852     4158    12987 |    16518    13166     33 |  2.263 % |
|  11362814 |     852     4158    12987 |    18170    16553     24 |  2.263 % |
|  17044326 |     852     4158    12987 |    19987    17347     29 |  2.263 % |
|  25566595 |     852     4158    12987 |    21986    13283     28 |  2.263 % |
===============================================================================
restarts              : 45912
conflicts             : 32747229       (53327 /sec)
decisions             : 46037499       (0.00 % random) (74970 /sec)
propagations          : 3777080679     (6150781 /sec)
conflict literals     : 1003283854     (47.61 % deleted)
Memory used           : 128.52 MB
CPU time              : 614.082 s

UNSATISFIABLE
File /Users/damy17/Documents/hw-uni/master-1-uvt/verificare-formala/benchmark/input-files/benchmarkfile30.cnf completed successfully.
